# websudoku Evil Puzzle 4,480,540,313 (http://www.websudoku.com/?level=4&set_id=4480540313)

param n := 3;

param nFix := 26;

param FixIndex:
    1  2  3 :=
 1  1  1  7
 2  1  4  2
 3  2  2  2
 4  2  5  9
 5  2  6  7
 6  2  9  6
 7  3  3  3
 8  3  5  6
 9  3  8  9
10  4  1  8
11  4  3  2
12  5  3  4
13  5  4  1
14  5  6  5
15  5  7  9
16  6  7  3
17  6  9  2
18  7  2  1
19  7  5  5
20  7  7  7
21  8  1  5
22  8  4  4
23  8  5  7
24  8  8  6
25  9  6  9
26  9  9  5
;
